c instance by G2
c solution = 010011111
c Known solution cost is 383 
p cnf 9 30
w 69 18 14 89 65 44 54 18 12
8 9 -6 0
-7 8 -3 0
5 -3 8 0
4 9 -1 0
-4 -8 1 0
4 -5 -3 0
5 -4 6 0
9 -8 -2 0
-3 -5 2 0
8 -6 -9 0
5 1 -7 0
-2 -7 8 0
8 3 -2 0
5 9 7 0
9 1 2 0
2 1 -7 0
-6 5 -7 0
6 2 -1 0
9 8 4 0
-3 1 5 0
7 6 9 0
-7 -9 2 0
4 9 -8 0
-2 8 6 0
1 -2 6 0
-2 -7 -1 0
-9 -2 6 0
7 -6 4 0
9 6 -5 0
-8 -1 9 0
